(set-info :smt-lib-version 2.6)
(set-logic QF_SLIA)
(set-info :source |
Generated by: Dmitry Blotsky1, Federico Mora, Murphy Berzish, Yunhui Zheng, Ifaz Kabir, Vijay Ganesh, Zhengyang Lu
Generated on: 2018-01-24
Generator: StringFuzz
Application: Evaluate string solvers
Target solver: Z3str3, CVC4, Z3str2, Norn
Publications: Blotsky, D., Mora, F., Berzish, M., Zheng, Y., Kabir, I., & Ganesh, V. (2018). Stringfuzz: A fuzzer for string solvers. In CAV 2018.
Description: new instance generated by StringFuzz, a modular string and regex fuzzer
|)
(set-info :license "https://creativecommons.org/licenses/by/4.0/")
(set-info :category "random")
(set-info :status unknown)

(declare-fun var0 () String)
(assert (str.in_re var0 (re.++ (re.+ (re.union (str.to_re "000") (str.to_re "11"))) (re.++ (re.+ (re.+ (str.to_re "2"))) (re.++ (re.+ (re.* (str.to_re "333"))) (re.++ (re.+ (re.+ (str.to_re "444"))) (re.++ (re.union (re.+ (str.to_re "555")) (re.* (str.to_re "66"))) (re.++ (re.union (re.* (str.to_re "77")) (re.+ (str.to_re "888"))) (re.++ (re.+ (re.* (str.to_re "9"))) (re.++ (re.+ (re.+ (str.to_re "aa"))) (re.++ (re.+ (re.+ (str.to_re "bb"))) (re.++ (re.union (re.* (str.to_re "cc")) (re.union (str.to_re "d") (str.to_re "eee"))) (re.++ (re.union (re.union (str.to_re "f") (str.to_re "g")) (re.+ (str.to_re "hh"))) (re.++ (re.* (re.* (str.to_re "ii"))) (re.++ (re.union (re.union (str.to_re "jjj") (str.to_re "kkk")) (re.union (str.to_re "l") (str.to_re "mmm"))) (re.++ (re.union (re.* (str.to_re "nnn")) (re.union (str.to_re "ooo") (str.to_re "pp"))) (re.++ (re.+ (re.* (str.to_re "q"))) (re.++ (re.union (re.+ (str.to_re "r")) (re.* (str.to_re "sss"))) (re.++ (re.+ (re.+ (str.to_re "t"))) (re.++ (re.* (re.+ (str.to_re "u"))) (re.++ (re.+ (re.* (str.to_re "vvv"))) (re.++ (re.union (re.+ (str.to_re "w")) (re.union (str.to_re "xx") (str.to_re "yy"))) (re.++ (re.* (re.+ (str.to_re "zz"))) (re.++ (re.+ (re.* (str.to_re "AAA"))) (re.++ (re.+ (re.+ (str.to_re "B"))) (re.++ (re.union (re.* (str.to_re "CC")) (re.* (str.to_re "DD"))) (re.++ (re.* (re.+ (str.to_re "EE"))) (re.++ (re.* (re.+ (str.to_re "FF"))) (re.++ (re.union (re.union (str.to_re "GG") (str.to_re "H")) (re.union (str.to_re "III") (str.to_re "J"))) (re.++ (re.union (re.union (str.to_re "KKK") (str.to_re "L")) (re.union (str.to_re "M") (str.to_re "NNN"))) (re.* (re.union (str.to_re "OO") (str.to_re "PPP")))))))))))))))))))))))))))))))))
(check-sat)
(exit)
